
Log started (V11.0.0) Sun Apr 13 13:00:33 2008

Tried aggregator 1 time.
Reduced MIP has 120 rows, 2001 columns, and 4020 nonzeros.
Presolve time =    0.02 sec.
Clique table members: 100.
MIP emphasis: balance optimality and feasibility.
MIP search method: dynamic search.
Parallel mode: none, using 1 thread.
Root relaxation solution time =    0.05 sec.

        Nodes                                         Cuts/
   Node  Left     Objective  IInf  Best Integer     Best Node    ItCnt     Gap

*     0+    0                         4920.0000       26.4074      436   99.46%
*     0+    0                           38.0000       26.4074      436   30.51%
      0     0       27.0000    45       38.0000      Fract: 9      521   28.95%
*     0+    0                           37.0000       27.0000      521   27.03%
      0     0       27.0000    43       37.0000   Impl Bds: 1      524   27.03%
*     0+    0                           36.0000       27.0000      524   25.00%
      0     0       27.0000    41       36.0000       Cuts: 2      537   25.00%
*     0+    0                           35.0000       27.0000      537   22.86%
      0     0       27.0581    44       35.0000   Impl Bds: 1      589   22.69%
*     0+    0                           34.0000       27.0581      589   20.42%
      0     0       27.4522    64       34.0000   MIRcuts: 17      632   19.26%
*     0+    0                           33.0000       27.4522      632   16.81%
      0     0       27.5817    80       33.0000      Cuts: 18      671   16.42%
      0     0       27.6178    88       33.0000   MIRcuts: 12      696   16.31%
*     0+    0                           31.0000       27.6178      696   10.91%
      0     0       27.6759    88       31.0000   MIRcuts: 10      721   10.72%
      0     0       27.6912    97       31.0000    MIRcuts: 8      738   10.67%
      0     0       27.7267    99       31.0000    MIRcuts: 8      767   10.56%
      0     0       27.7629   103       31.0000    MIRcuts: 8      794   10.44%
*     0+    0                           30.0000       27.7629      794    7.46%
      0     0       27.8104   104       30.0000   MIRcuts: 13      827    7.30%
      0     0       27.8586    94       30.0000    MIRcuts: 6      868    7.14%
      0     0       27.8974    95       30.0000      Cuts: 11      898    7.01%
      0     0       27.9473   100       30.0000      Cuts: 10      936    6.84%
      0     0       28.0052    98       30.0000       Cuts: 6      964    6.65%
      0     0       28.1162    97       30.0000       Cuts: 8     1010    6.28%
      0     0       28.1376   104       30.0000      Cuts: 10     1027    6.21%
      0     0       28.1520   100       30.0000    MIRcuts: 4     1042    6.16%
      0     0       28.1688   110       30.0000    MIRcuts: 8     1056    6.10%
      0     0       28.1919   112       30.0000    MIRcuts: 7     1073    6.03%
      0     0       28.2136   108       30.0000    MIRcuts: 6     1100    5.95%
      0     0       28.2201   114       30.0000    MIRcuts: 4     1117    5.93%
*     0+    0                           29.0000       28.2201     1117    2.69%

Mixed integer rounding cuts applied:  49
Zero-half cuts applied:  3
Gomory fractional cuts applied:  1

Solution pool: 10 solutions saved.

MIP - Integer optimal solution:  Objective = 2.9000000000e+001
Solution time =    0.59 sec.  Iterations = 1117  Nodes = 0


Incumbent solution
Variable Name           Solution Value
Cmax                         29.000000
X_1_3                         1.000000
X_2_15                        1.000000
X_3_3                         1.000000
X_4_11                        1.000000
X_5_1                         1.000000
X_6_6                         1.000000
X_7_18                        1.000000
X_8_13                        1.000000
X_9_7                         1.000000
X_10_10                       1.000000
X_11_17                       1.000000
X_12_5                        1.000000
X_13_17                       1.000000
X_14_9                        1.000000
X_15_12                       1.000000
X_16_15                       1.000000
X_17_3                        1.000000
X_18_5                        1.000000
X_19_10                       1.000000
X_20_17                       1.000000
X_21_10                       1.000000
X_22_6                        1.000000
X_23_18                       1.000000
X_24_2                        1.000000
X_25_15                       1.000000
X_26_10                       1.000000
X_27_2                        1.000000
X_28_17                       1.000000
X_29_19                       1.000000
X_30_8                        1.000000
X_31_10                       1.000000
X_32_9                        1.000000
X_33_15                       1.000000
X_34_10                       1.000000
X_35_2                        1.000000
X_36_6                        1.000000
X_37_15                       1.000000
X_38_8                        1.000000
X_39_16                       1.000000
X_40_6                        1.000000
X_41_13                       1.000000
X_42_16                       1.000000
X_43_20                       1.000000
X_44_7                        1.000000
X_45_13                       1.000000
X_46_14                       1.000000
X_47_20                       1.000000
X_48_2                        1.000000
X_49_11                       1.000000
X_50_8                        1.000000
X_51_17                       1.000000
X_52_1                        1.000000
X_53_8                        1.000000
X_54_4                        1.000000
X_55_13                       1.000000
X_56_18                       1.000000
X_57_10                       1.000000
X_58_6                        1.000000
X_59_12                       1.000000
X_60_7                        1.000000
X_61_1                        1.000000
X_62_4                        1.000000
X_63_18                       1.000000
X_64_5                        1.000000
X_65_5                        1.000000
X_66_10                       1.000000
X_67_18                       1.000000
X_68_20                       1.000000
X_69_4                        1.000000
X_70_8                        1.000000
X_71_6                        1.000000
X_72_10                       1.000000
X_73_13                       1.000000
X_74_18                       1.000000
X_75_9                        1.000000
X_76_7                        1.000000
X_77_6                        1.000000
X_78_14                       1.000000
X_79_12                       1.000000
X_80_16                       1.000000
X_81_2                        1.000000
X_82_19                       1.000000
X_83_19                       1.000000
X_84_12                       1.000000
X_85_4                        1.000000
X_86_10                       1.000000
X_87_14                       1.000000
X_88_11                       1.000000
X_89_11                       1.000000
X_90_4                        1.000000
X_91_1                        1.000000
X_92_8                        1.000000
X_93_19                       1.000000
X_94_19                       1.000000
X_95_2                        1.000000
X_96_8                        1.000000
X_97_4                        1.000000
X_98_1                        1.000000
X_99_2                        1.000000
X_100_20                      1.000000
All other variables in the range 1-2001 are 0.
